\ This file was automatically generated by Zimpl
\ var x1 >= 0;
\ var x2 >= 0;
\ var x3 >= 0;
\ maximize Z:     2*x1 + 10*x2 + 5*x3;
\ subto c1:     3*x1 + 10*x2 + 5*x3 <= 15;
\ subto c2:     33*x1 -10*x2 + 9*x3 <= 33;
\ subto c3:     1*x1 + 2*x2 + 1*x3 >= 4;
\Problem name: pp
Maximize
 Z:  +2 x1 +10 x2 +5 x3
Subject to
 c1_1:
  +5 x3 +10 x2 +3 x1 <= 15
 c2_1:
  +9 x3 -10 x2 +33 x1 <= 33
 c3_1:
  + x3 +2 x2 + x1 >= 4
Bounds
 0 <= x1 <= +inf
 0 <= x2 <= +inf
 0 <= x3 <= +inf
End
